NAME : ClusterId_1041 
COMMENT : (Gillet and Johnson) 
TYPE : CVRP 
DIMENSION : 15 
EDGE_WEIGHT_TYPE : EUC_2D 
CAPACITY : 500 
NODE_COORD_SECTION 
1041 9030 5510 
51 8480 4913 
838 8682 4821 
274 8526 5036 
270 8398 5237 
308 8702 5072 
690 8804 5077 
518 9179 5259 
985 9044 5461 
937 9357 5393 
291 8959 5773 
870 9344 5585 
173 9345 5772 
773 9087 6018 
261 9313 6337 
DEMAND_SECTION 
1041 610
51 26
838 37
274 42
270 31
308 47
690 56
518 56
985 39
937 41
291 44
870 46
173 47
773 38
261 45
DEPOT_SECTION 
1041
 -1
EOF